230	42	4	181	
13	12	12	14

0	0	0	0	0	0	2	1	2
1	4	4	2	2	6	1	5
2	7	7	2	10	10	1	3
3	7	4	8	6	1	1	4
4	5	10	1	2	4	2	6	10
5	10	2	3	3	8	1	10
6	1	3	2	9	3	1	7
7	6	2	8	9	4	2	8	26
8	10	9	1	5	10	1	9
9	5	2	6	9	5	1	12
10	3	2	1	10	5	1	11
11	8	4	9	5	3	2	12	15
12	3	3	10	8	4	1	13
13	10	3	3	1	3	1	14
14	10	3	9	5	4	1	17
15	9	2	5	7	1	1	16
16	7	2	4	3	6	1	18
17	4	7	3	3	10	1	20
18	2	1	6	5	10	1	19
19	3	5	6	6	6	1	22
20	8	2	7	8	7	1	21
21	1	6	8	6	9	1	23
22	10	10	4	6	8	1	26
23	10	1	10	10	3	1	24
24	2	2	5	7	10	1	25
25	1	3	6	9	5	3	27	34	40
26	3	3	5	1	2	1	34
27	2	2	4	8	7	1	28
28	7	4	8	7	8	1	29
29	6	3	9	9	2	1	30
30	1	5	4	8	4	1	31
31	1	8	1	1	1	1	32
32	4	5	10	3	6	1	33
33	6	8	3	4	7	2	35	36
34	6	5	7	9	2	1	36
35	7	1	4	6	6	1	37
36	1	2	2	9	6	1	39
37	1	6	3	1	9	1	38
38	7	1	3	6	10	1	41
39	8	6	10	6	8	1	41
40	10	6	3	7	7	1	41
41	0	0	0	0	0	0
